17	4
17	16	16	21	
0	0	0	0	0	3	2	3	4	
5	4	0	7	0	2	6	17	
6	2	0	5	0	3	5	17	17	
3	10	0	7	0	3	12	14	17	
4	0	5	0	7	3	6	9	10	
25	0	0	0	7	3	7	8	17	
150	0	0	0	3	2	13	17	
175	0	0	0	9	3	12	17	17	
225	0	3	0	0	2	16	17	
175	0	5	0	9	3	11	15	17	
125	5	0	0	1	2	16	17	
250	0	2	7	0	1	17	
7	9	9	0	0	2	14	17	
1	0	9	0	0	1	17	
4	0	2	6	10	1	17	
1	7	0	0	6	3	17	17	17	
0	0	0	0	0	0	
